networks/zoo_74_799/zoo_74_799.txt
Number of groups: 66
Flow 2: {1 31} {31 35} {35 72} 
Flow 4: {2 31} {31 3} {3 40} 
Flow 21: {2 7} 
Flow 32: {3 31} {31 10} 
Flow 40: {4 7} {7 44} 
Flow 54: {31 29} {29 66} 
Flow 55: {4 31} {31 30} {30 67} 
Flow 66: {5 7} {7 31} {31 18} {18 55} 
Flow 81: {6 31} {31 26} {26 19} {19 56} 
Flow 82: {26 20} {20 57} 
Flow 84: {6 7} {7 25} {25 62} 
Flow 118: {8 7} {7 9} 
Flow 142: {8 35} {35 36} {36 73} 
Flow 147: {9 31} 
Flow 155: {9 7} {7 35} {35 37} 
Flow 163: {7 8} 
Flow 164: {10 31} {31 11} {11 48} 
Flow 178: {10 7} {7 30} 
Flow 192: {11 31} {31 9} {9 46} 
Flow 201: {31 22} {22 23} {23 60} 
Flow 206: {22 21} {21 28} {28 65} 
Flow 214: {12 35} {35 31} {31 68} 
Flow 233: {13 35} {35 22} {22 59} 
Flow 273: {14 8} {8 31} {31 34} 
Flow 289: {15 20} {20 26} 
Flow 309: {16 20} {20 24} 
Flow 327: {17 25} {25 26} {26 63} 
Flow 334: {18 31} {31 4} {4 41} 
Flow 360: {7 3} 
Flow 376: {19 24} 
Flow 379: {19 25} {25 27} 
Flow 383: {19 26} 
Flow 388: {20 25} {25 7} {7 1} 
Flow 444: {21 22} {22 33} {33 70} 
Flow 449: {7 2} 
Flow 458: {22 35} {35 13} {13 50} 
Flow 488: {23 35} {35 25} {25 19} 
Flow 498: {23 22} {22 37} {37 74} 
Flow 512: {24 25} {25 17} {17 54} 
Flow 514: {24 19} 
Flow 515: {24 20} 
Flow 526: {24 26} {26 31} {31 32} {32 69} 
Flow 545: {25 20} {20 16} {16 53} 
Flow 562: {7 10} {10 34} {34 71} 
Flow 578: {31 8} {8 14} {14 51} 
Flow 585: {26 25} {25 35} {35 23} 
Flow 586: {26 24} 
Flow 612: {27 25} {25 24} {24 61} 
Flow 614: {27 26} 
Flow 619: {28 21} {21 35} 
Flow 630: {29 31} 
Flow 634: {29 7} {7 22} 
Flow 642: {30 7} {7 6} 
Flow 648: {30 31} 
Flow 662: {31 7} {7 5} {5 42} 
Flow 679: {26 27} {27 64} 
Flow 686: {32 31} {31 6} {6 43} 
Flow 701: {31 1} {1 38} 
Flow 702: {34 31} {31 2} {2 39} 
Flow 714: {34 10} {10 35} {35 21} {21 58} 
Flow 726: {35 7} {7 4} 
Flow 736: {20 15} {15 52} 
Flow 762: {36 35} {35 8} {8 45} 
Flow 775: {36 22} {22 7} {7 29} 
Flow 785: {37 35} {35 10} {10 47} 
Flow 789: {37 22} {22 31} 
Time taken running everything: 11 seconds
