networks/zoo_74_799/zoo_74_799.sol
<?xml version = "1.0" encoding="UTF-8" standalone="yes"?>
<CPLEXSolution version="1.2">
 <header
   problemName="networks/zoo_74_799/zoo_74_799.lp"
   solutionName="incumbent"
   solutionIndex="-1"
   objectiveValue="66"
   solutionTypeValue="3"
   solutionTypeString="primal"
   solutionStatusValue="101"
   solutionStatusString="integer optimal solution"
   solutionMethodString="mip"
   primalFeasible="1"
   dualFeasible="1"
   MIPNodes="0"
   MIPIterations="18277"
   writeLevel="3"/>
 <quality
   epInt="1.0000000000000001e-05"
   epRHS="9.9999999999999995e-07"
   maxIntInfeas="0"
   maxPrimalInfeas="8.8817841970012523e-16"
   maxX="4"
   maxSlack="10"/>
 <variables>
  <variable name="Y(2,35)" index="107" value="1"/>
  <variable name="Y(4,3)" index="221" value="1"/>
  <variable name="Y(21,2)" index="1461" value="1"/>
  <variable name="Y(32,31)" index="2293" value="1"/>
  <variable name="Y(40,7)" index="2853" value="1"/>
  <variable name="Y(54,29)" index="3897" value="1"/>
  <variable name="Y(55,30)" index="3971" value="1"/>
  <variable name="Y(66,18)" index="4762" value="1"/>
  <variable name="Y(81,19)" index="5858" value="1"/>
  <variable name="Y(82,20)" index="5932" value="1"/>
  <variable name="Y(84,25)" index="6083" value="1"/>
  <variable name="Y(118,7)" index="8547" value="1"/>
  <variable name="Y(142,36)" index="10328" value="1"/>
  <variable name="Y(147,9)" index="10666" value="1"/>
  <variable name="Y(155,35)" index="11276" value="1"/>
  <variable name="Y(163,7)" index="11832" value="1"/>
  <variable name="Y(164,11)" index="11909" value="1"/>
  <variable name="Y(178,7)" index="12927" value="1"/>
  <variable name="Y(192,9)" index="13951" value="1"/>
  <variable name="Y(201,23)" index="14622" value="1"/>
  <variable name="Y(206,28)" index="14992" value="1"/>
  <variable name="Y(214,31)" index="15579" value="1"/>
  <variable name="Y(233,22)" index="16957" value="1"/>
  <variable name="Y(273,31)" index="19886" value="1"/>
  <variable name="Y(289,20)" index="21043" value="1"/>
  <variable name="Y(309,20)" index="22503" value="1"/>
  <variable name="Y(327,26)" index="23823" value="1"/>
  <variable name="Y(334,4)" index="24312" value="1"/>
  <variable name="Y(360,7)" index="26213" value="1"/>
  <variable name="Y(376,19)" index="27393" value="1"/>
  <variable name="Y(379,25)" index="27618" value="1"/>
  <variable name="Y(383,19)" index="27904" value="1"/>
  <variable name="Y(388,7)" index="28257" value="1"/>
  <variable name="Y(444,33)" index="32371" value="1"/>
  <variable name="Y(449,7)" index="32710" value="1"/>
  <variable name="Y(458,13)" index="33373" value="1"/>
  <variable name="Y(488,25)" index="35575" value="1"/>
  <variable name="Y(498,37)" index="36317" value="1"/>
  <variable name="Y(512,17)" index="37319" value="1"/>
  <variable name="Y(514,24)" index="37472" value="1"/>
  <variable name="Y(515,24)" index="37545" value="1"/>
  <variable name="Y(526,32)" index="38356" value="1"/>
  <variable name="Y(545,16)" index="39727" value="1"/>
  <variable name="Y(562,34)" index="40986" value="1"/>
  <variable name="Y(578,14)" index="42134" value="1"/>
  <variable name="Y(585,35)" index="42666" value="1"/>
  <variable name="Y(586,26)" index="42730" value="1"/>
  <variable name="Y(612,24)" index="44626" value="1"/>
  <variable name="Y(614,27)" index="44775" value="1"/>
  <variable name="Y(619,21)" index="45134" value="1"/>
  <variable name="Y(630,29)" index="45945" value="1"/>
  <variable name="Y(634,7)" index="46215" value="1"/>
  <variable name="Y(642,7)" index="46799" value="1"/>
  <variable name="Y(648,30)" index="47260" value="1"/>
  <variable name="Y(662,5)" index="48257" value="1"/>
  <variable name="Y(679,27)" index="49520" value="1"/>
  <variable name="Y(686,6)" index="50010" value="1"/>
  <variable name="Y(701,1)" index="51100" value="1"/>
  <variable name="Y(702,2)" index="51174" value="1"/>
  <variable name="Y(714,21)" index="52069" value="1"/>
  <variable name="Y(726,7)" index="52931" value="1"/>
  <variable name="Y(736,15)" index="53669" value="1"/>
  <variable name="Y(762,8)" index="55560" value="1"/>
  <variable name="Y(775,7)" index="56508" value="1"/>
  <variable name="Y(785,10)" index="57241" value="1"/>
  <variable name="Y(789,22)" index="57545" value="1"/>
  <variable name="X(1,31,2)" index="58328" value="1"/>
  <variable name="X(1,38,701)" index="59826" value="1"/>
  <variable name="X(2,7,21)" index="59945" value="1"/>
  <variable name="X(2,31,4)" index="60727" value="1"/>
  <variable name="X(2,39,702)" index="62224" value="1"/>
  <variable name="X(3,31,32)" index="62353" value="1"/>
  <variable name="X(3,40,4)" index="63124" value="1"/>
  <variable name="X(4,7,40)" index="63959" value="1"/>
  <variable name="X(4,31,55)" index="64773" value="1"/>
  <variable name="X(4,41,334)" index="65851" value="1"/>
  <variable name="X(5,7,66)" index="66382" value="1"/>
  <variable name="X(5,42,662)" index="67777" value="1"/>
  <variable name="X(6,7,84)" index="67998" value="1"/>
  <variable name="X(6,31,81)" index="68794" value="1"/>
  <variable name="X(6,43,686)" index="70198" value="1"/>
  <variable name="X(7,1,388)" index="70699" value="1"/>
  <variable name="X(7,2,449)" index="71559" value="1"/>
  <variable name="X(7,3,360)" index="72269" value="1"/>
  <variable name="X(7,4,726)" index="73434" value="1"/>
  <variable name="X(7,5,662)" index="74169" value="1"/>
  <variable name="X(7,6,642)" index="74948" value="1"/>
  <variable name="X(7,8,163)" index="75268" value="1"/>
  <variable name="X(7,9,118)" index="76022" value="1"/>
  <variable name="X(7,10,562)" index="77265" value="1"/>
  <variable name="X(7,22,634)" index="78136" value="1"/>
  <variable name="X(7,25,84)" index="78385" value="1"/>
  <variable name="X(7,29,775)" index="79875" value="1"/>
  <variable name="X(7,30,178)" index="80077" value="1"/>
  <variable name="X(7,31,66)" index="80764" value="1"/>
  <variable name="X(7,35,155)" index="81652" value="1"/>
  <variable name="X(7,44,40)" index="82336" value="1"/>
  <variable name="X(8,7,118)" index="83213" value="1"/>
  <variable name="X(8,14,578)" index="84472" value="1"/>
  <variable name="X(8,31,273)" index="84966" value="1"/>
  <variable name="X(8,35,142)" index="85634" value="1"/>
  <variable name="X(8,45,762)" index="87053" value="1"/>
  <variable name="X(9,7,155)" index="87245" value="1"/>
  <variable name="X(9,31,147)" index="88036" value="1"/>
  <variable name="X(9,46,192)" index="88880" value="1"/>
  <variable name="X(10,7,178)" index="89665" value="1"/>
  <variable name="X(10,31,164)" index="90450" value="1"/>
  <variable name="X(10,34,562)" index="91647" value="1"/>
  <variable name="X(10,35,714)" index="92598" value="1"/>
  <variable name="X(10,47,785)" index="93468" value="1"/>
  <variable name="X(11,31,192)" index="93674" value="1"/>
  <variable name="X(11,48,164)" index="94445" value="1"/>
  <variable name="X(12,35,214)" index="95294" value="1"/>
  <variable name="X(13,35,233)" index="96112" value="1"/>
  <variable name="X(13,50,458)" index="97136" value="1"/>
  <variable name="X(14,8,273)" index="97750" value="1"/>
  <variable name="X(14,51,578)" index="98854" value="1"/>
  <variable name="X(15,20,289)" index="99364" value="1"/>
  <variable name="X(15,52,736)" index="100610" value="1"/>
  <variable name="X(16,20,309)" index="100982" value="1"/>
  <variable name="X(16,53,545)" index="102017" value="1"/>
  <variable name="X(17,25,327)" index="102598" value="1"/>
  <variable name="X(17,54,512)" index="103582" value="1"/>
  <variable name="X(18,31,334)" index="104203" value="1"/>
  <variable name="X(18,55,66)" index="104734" value="1"/>
  <variable name="X(19,24,376)" index="105843" value="1"/>
  <variable name="X(19,25,379)" index="106645" value="1"/>
  <variable name="X(19,26,383)" index="107448" value="1"/>
  <variable name="X(19,56,81)" index="107945" value="1"/>
  <variable name="X(20,15,736)" index="109399" value="1"/>
  <variable name="X(20,16,545)" index="110007" value="1"/>
  <variable name="X(20,24,309)" index="110570" value="1"/>
  <variable name="X(20,25,388)" index="111448" value="1"/>
  <variable name="X(20,26,289)" index="112148" value="1"/>
  <variable name="X(20,57,82)" index="112740" value="1"/>
  <variable name="X(21,22,444)" index="113901" value="1"/>
  <variable name="X(21,28,206)" index="114462" value="1"/>
  <variable name="X(21,35,619)" index="115674" value="1"/>
  <variable name="X(21,58,714)" index="116568" value="1"/>
  <variable name="X(22,7,775)" index="117428" value="1"/>
  <variable name="X(22,21,206)" index="117658" value="1"/>
  <variable name="X(22,23,201)" index="118452" value="1"/>
  <variable name="X(22,31,789)" index="119839" value="1"/>
  <variable name="X(22,33,444)" index="120293" value="1"/>
  <variable name="X(22,35,458)" index="121106" value="1"/>
  <variable name="X(22,37,498)" index="121945" value="1"/>
  <variable name="X(22,59,233)" index="122479" value="1"/>
  <variable name="X(23,22,498)" index="123543" value="1"/>
  <variable name="X(23,35,488)" index="124332" value="1"/>
  <variable name="X(23,60,201)" index="124844" value="1"/>
  <variable name="X(24,19,514)" index="125956" value="1"/>
  <variable name="X(24,20,515)" index="126756" value="1"/>
  <variable name="X(24,25,512)" index="127552" value="1"/>
  <variable name="X(24,26,526)" index="128365" value="1"/>
  <variable name="X(24,61,612)" index="129250" value="1"/>
  <variable name="X(25,7,388)" index="129825" value="1"/>
  <variable name="X(25,17,512)" index="130748" value="1"/>
  <variable name="X(25,19,488)" index="131523" value="1"/>
  <variable name="X(25,20,545)" index="132379" value="1"/>
  <variable name="X(25,24,612)" index="133245" value="1"/>
  <variable name="X(25,26,327)" index="133759" value="1"/>
  <variable name="X(25,27,379)" index="134610" value="1"/>
  <variable name="X(25,35,585)" index="135615" value="1"/>
  <variable name="X(25,62,84)" index="135913" value="1"/>
  <variable name="X(26,19,81)" index="136709" value="1"/>
  <variable name="X(26,20,82)" index="137509" value="1"/>
  <variable name="X(26,24,586)" index="138812" value="1"/>
  <variable name="X(26,25,585)" index="139610" value="1"/>
  <variable name="X(26,27,679)" index="140503" value="1"/>
  <variable name="X(26,31,526)" index="141149" value="1"/>
  <variable name="X(26,63,327)" index="141749" value="1"/>
  <variable name="X(27,25,612)" index="142833" value="1"/>
  <variable name="X(27,26,614)" index="143634" value="1"/>
  <variable name="X(27,64,679)" index="144498" value="1"/>
  <variable name="X(28,21,619)" index="145237" value="1"/>
  <variable name="X(28,65,206)" index="145623" value="1"/>
  <variable name="X(29,7,634)" index="146850" value="1"/>
  <variable name="X(29,31,630)" index="147645" value="1"/>
  <variable name="X(29,66,54)" index="147868" value="1"/>
  <variable name="X(30,7,642)" index="149255" value="1"/>
  <variable name="X(30,31,648)" index="150060" value="1"/>
  <variable name="X(30,67,55)" index="150266" value="1"/>
  <variable name="X(31,1,701)" index="151711" value="1"/>
  <variable name="X(31,2,702)" index="152511" value="1"/>
  <variable name="X(31,3,4)" index="152612" value="1"/>
  <variable name="X(31,4,334)" index="153741" value="1"/>
  <variable name="X(31,6,686)" index="154892" value="1"/>
  <variable name="X(31,7,662)" index="155667" value="1"/>
  <variable name="X(31,8,578)" index="156382" value="1"/>
  <variable name="X(31,9,192)" index="156795" value="1"/>
  <variable name="X(31,10,32)" index="157434" value="1"/>
  <variable name="X(31,11,164)" index="158365" value="1"/>
  <variable name="X(31,18,66)" index="159066" value="1"/>
  <variable name="X(31,22,201)" index="160000" value="1"/>
  <variable name="X(31,26,81)" index="160679" value="1"/>
  <variable name="X(31,29,54)" index="161451" value="1"/>
  <variable name="X(31,30,55)" index="162251" value="1"/>
  <variable name="X(31,32,526)" index="163521" value="1"/>
  <variable name="X(31,34,273)" index="164067" value="1"/>
  <variable name="X(31,35,2)" index="164595" value="1"/>
  <variable name="X(31,68,214)" index="165606" value="1"/>
  <variable name="X(32,31,686)" index="166877" value="1"/>
  <variable name="X(32,69,526)" index="167516" value="1"/>
  <variable name="X(33,70,444)" index="168233" value="1"/>
  <variable name="X(34,10,714)" index="169302" value="1"/>
  <variable name="X(34,31,702)" index="170089" value="1"/>
  <variable name="X(34,71,562)" index="170748" value="1"/>
  <variable name="X(35,7,726)" index="171711" value="1"/>
  <variable name="X(35,8,762)" index="172546" value="1"/>
  <variable name="X(35,10,785)" index="173368" value="1"/>
  <variable name="X(35,13,458)" index="173840" value="1"/>
  <variable name="X(35,21,714)" index="174895" value="1"/>
  <variable name="X(35,22,233)" index="175213" value="1"/>
  <variable name="X(35,23,585)" index="176364" value="1"/>
  <variable name="X(35,25,488)" index="177066" value="1"/>
  <variable name="X(35,31,214)" index="177591" value="1"/>
  <variable name="X(35,36,142)" index="178318" value="1"/>
  <variable name="X(35,37,155)" index="179130" value="1"/>
  <variable name="X(35,72,2)" index="179776" value="1"/>
  <variable name="X(36,22,775)" index="181348" value="1"/>
  <variable name="X(36,35,762)" index="182134" value="1"/>
  <variable name="X(36,73,142)" index="182313" value="1"/>
  <variable name="X(37,22,789)" index="183759" value="1"/>
  <variable name="X(37,35,785)" index="184554" value="1"/>
  <variable name="X(37,74,498)" index="185066" value="1"/>
  <variable name="C(2,31)" index="185371" value="1"/>
  <variable name="C(2,35)" index="185372" value="2"/>
  <variable name="C(4,31)" index="185377" value="1"/>
  <variable name="C(4,3)" index="185378" value="2"/>
  <variable name="C(32,31)" index="185469" value="1"/>
  <variable name="C(40,7)" index="185493" value="1"/>
  <variable name="C(54,29)" index="185541" value="1"/>
  <variable name="C(55,31)" index="185543" value="1"/>
  <variable name="C(55,30)" index="185544" value="2"/>
  <variable name="C(66,7)" index="185577" value="1"/>
  <variable name="C(66,31)" index="185578" value="2"/>
  <variable name="C(66,18)" index="185579" value="3"/>
  <variable name="C(81,31)" index="185628" value="1"/>
  <variable name="C(81,26)" index="185629" value="2"/>
  <variable name="C(81,19)" index="185630" value="3"/>
  <variable name="C(82,20)" index="185634" value="1"/>
  <variable name="C(84,7)" index="185640" value="1"/>
  <variable name="C(84,25)" index="185641" value="2"/>
  <variable name="C(118,7)" index="185728" value="1"/>
  <variable name="C(142,35)" index="185804" value="1"/>
  <variable name="C(142,36)" index="185805" value="2"/>
  <variable name="C(155,7)" index="185845" value="1"/>
  <variable name="C(155,35)" index="185846" value="2"/>
  <variable name="C(164,31)" index="185872" value="1"/>
  <variable name="C(164,11)" index="185873" value="2"/>
  <variable name="C(178,7)" index="185919" value="1"/>
  <variable name="C(192,31)" index="185960" value="1"/>
  <variable name="C(192,9)" index="185961" value="2"/>
  <variable name="C(201,22)" index="185993" value="1"/>
  <variable name="C(201,23)" index="185994" value="1.9999999999999998"/>
  <variable name="C(206,21)" index="186013" value="1"/>
  <variable name="C(206,28)" index="186014" value="2"/>
  <variable name="C(214,35)" index="186038" value="1"/>
  <variable name="C(214,31)" index="186039" value="2"/>
  <variable name="C(233,35)" index="186107" value="1"/>
  <variable name="C(233,22)" index="186108" value="2"/>
  <variable name="C(273,8)" index="186259" value="1"/>
  <variable name="C(273,31)" index="186260" value="2"/>
  <variable name="C(289,20)" index="186326" value="1"/>
  <variable name="C(309,20)" index="186418" value="1"/>
  <variable name="C(327,25)" index="186486" value="1"/>
  <variable name="C(327,26)" index="186487" value="2"/>
  <variable name="C(334,31)" index="186509" value="1"/>
  <variable name="C(334,4)" index="186510" value="2"/>
  <variable name="C(379,25)" index="186668" value="1"/>
  <variable name="C(388,25)" index="186703" value="1"/>
  <variable name="C(388,7)" index="186704" value="2"/>
  <variable name="C(444,22)" index="186908" value="1"/>
  <variable name="C(444,33)" index="186909" value="2"/>
  <variable name="C(458,35)" index="186949" value="1"/>
  <variable name="C(458,13)" index="186950" value="2"/>
  <variable name="C(488,35)" index="187045" value="1"/>
  <variable name="C(488,25)" index="187046" value="2"/>
  <variable name="C(498,22)" index="187078" value="1"/>
  <variable name="C(498,37)" index="187079" value="2"/>
  <variable name="C(512,25)" index="187133" value="1"/>
  <variable name="C(512,17)" index="187134" value="2"/>
  <variable name="C(526,26)" index="187179" value="1"/>
  <variable name="C(526,31)" index="187180" value="2"/>
  <variable name="C(526,32)" index="187181" value="3"/>
  <variable name="C(545,20)" index="187243" value="1"/>
  <variable name="C(545,16)" index="187244" value="2"/>
  <variable name="C(562,10)" index="187293" value="1"/>
  <variable name="C(562,34)" index="187294" value="2"/>
  <variable name="C(578,8)" index="187343" value="1"/>
  <variable name="C(578,14)" index="187344" value="2"/>
  <variable name="C(585,25)" index="187363" value="1"/>
  <variable name="C(585,35)" index="187364" value="2"/>
  <variable name="C(612,25)" index="187457" value="1"/>
  <variable name="C(612,24)" index="187458" value="2"/>
  <variable name="C(619,21)" index="187478" value="1"/>
  <variable name="C(634,7)" index="187528" value="1"/>
  <variable name="C(642,7)" index="187553" value="1"/>
  <variable name="C(662,7)" index="187613" value="1"/>
  <variable name="C(662,5)" index="187614" value="2"/>
  <variable name="C(679,27)" index="187657" value="1"/>
  <variable name="C(686,32)" index="187672" value="2"/>
  <variable name="C(686,31)" index="187673" value="3"/>
  <variable name="C(686,6)" index="187674" value="4"/>
  <variable name="C(701,1)" index="187724" value="0.99999999999999978"/>
  <variable name="C(702,31)" index="187726" value="1"/>
  <variable name="C(702,2)" index="187727" value="1.9999999999999991"/>
  <variable name="C(714,34)" index="187764" value="1"/>
  <variable name="C(714,10)" index="187765" value="2"/>
  <variable name="C(714,35)" index="187766" value="3"/>
  <variable name="C(714,21)" index="187767" value="4"/>
  <variable name="C(726,7)" index="187804" value="1"/>
  <variable name="C(736,15)" index="187832" value="1"/>
  <variable name="C(762,35)" index="187906" value="1"/>
  <variable name="C(762,8)" index="187907" value="2"/>
  <variable name="C(775,22)" index="187951" value="1"/>
  <variable name="C(775,7)" index="187952" value="2"/>
  <variable name="C(785,35)" index="187985" value="1"/>
  <variable name="C(785,10)" index="187986" value="2"/>
  <variable name="C(789,22)" index="187999" value="1"/>
 </variables>
</CPLEXSolution>
